p cnf 430 1488
-191 -73 0
-191 -167 0
-191 156 0
-191 -165 0
-191 146 0
191 73 167 -156 165 -146 0
-192 160 0
-192 -173 0
-192 88 0
-192 -171 0
-192 -95 0
192 -160 173 -88 171 95 0
-193 33 0
-193 -167 0
-193 -49 0
-193 -29 0
-193 -12 0
193 -33 167 49 29 12 0
-194 -172 0
-194 71 0
-194 93 0
-194 -124 0
-194 -166 0
194 172 -71 -93 124 166 0
-195 139 0
-195 44 0
-195 25 0
-195 -54 0
-195 -129 0
195 -139 -44 -25 54 129 0
191 192 193 194 195 0
-196 -97 0
-196 -151 0
-196 -124 0
-196 -163 0
-196 12 0
196 97 151 124 163 -12 0
-197 -110 0
-197 -70 0
-197 168 0
-197 -129 0
-197 161 0
197 110 70 -168 129 -161 0
-198 39 0
-198 -105 0
-198 97 0
-198 -166 0
-198 -8 0
198 -39 105 -97 166 8 0
-199 156 0
-199 -36 0
-199 150 0
-199 113 0
-199 -122 0
199 -156 36 -150 -113 122 0
-200 106 0
-200 2 0
-200 -174 0
-200 -128 0
-200 122 0
200 -106 -2 174 128 -122 0
196 197 198 199 200 0
-201 -71 0
-201 -169 0
-201 -78 0
-201 -151 0
-201 -63 0
201 71 169 78 151 63 0
-202 -111 0
-202 -167 0
-202 -47 0
-202 86 0
-202 75 0
202 111 167 47 -86 -75 0
-203 120 0
-203 153 0
-203 -26 0
-203 18 0
-203 16 0
203 -120 -153 26 -18 -16 0
-204 59 0
-204 -127 0
-204 -2 0
-204 -166 0
-204 -180 0
204 -59 127 2 166 180 0
-205 -144 0
-205 49 0
-205 20 0
-205 -37 0
-205 -100 0
205 144 -49 -20 37 100 0
201 202 203 204 205 0
-206 161 0
-206 -148 0
-206 114 0
-206 58 0
-206 168 0
206 -161 148 -114 -58 -168 0
-207 -172 0
-207 166 0
-207 -96 0
-207 -155 0
-207 -101 0
207 172 -166 96 155 101 0
-208 -138 0
-208 -136 0
-208 -87 0
-208 86 0
-208 133 0
208 138 136 87 -86 -133 0
-209 -178 0
-209 -141 0
-209 -17 0
-209 -27 0
-209 -55 0
209 178 141 17 27 55 0
-210 -127 0
-210 -63 0
-210 162 0
-210 -12 0
-210 144 0
210 127 63 -162 12 -144 0
206 207 208 209 210 0
-211 44 0
-211 -103 0
-211 -178 0
-211 101 0
-211 53 0
211 -44 103 178 -101 -53 0
-212 177 0
-212 61 0
-212 49 0
-212 161 0
-212 -37 0
212 -177 -61 -49 -161 37 0
-213 143 0
-213 181 0
-213 -102 0
-213 -124 0
-213 -29 0
213 -143 -181 102 124 29 0
-214 -148 0
-214 127 0
-214 119 0
-214 116 0
-214 123 0
214 148 -127 -119 -116 -123 0
-215 -89 0
-215 -138 0
-215 107 0
-215 -16 0
-215 -100 0
215 89 138 -107 16 100 0
211 212 213 214 215 0
-216 -110 0
-216 4 0
-216 106 0
-216 -69 0
-216 -12 0
216 110 -4 -106 69 12 0
-217 55 0
-217 -33 0
-217 13 0
-217 -108 0
-217 122 0
217 -55 33 -13 108 -122 0
-218 155 0
-218 60 0
-218 -87 0
-218 152 0
-218 89 0
218 -155 -60 87 -152 -89 0
-219 188 0
-219 -163 0
-219 -86 0
-219 -149 0
-219 -26 0
219 -188 163 86 149 26 0
-220 112 0
-220 -15 0
-220 -2 0
-220 -177 0
-220 63 0
220 -112 15 2 177 -63 0
216 217 218 219 220 0
-221 16 0
-221 118 0
-221 -164 0
-221 -9 0
-221 57 0
221 -16 -118 164 9 -57 0
-222 -59 0
-222 -62 0
-222 -20 0
-222 -84 0
-222 73 0
222 59 62 20 84 -73 0
-223 -41 0
-223 175 0
-223 -113 0
-223 -138 0
-223 33 0
223 41 -175 113 138 -33 0
-224 -52 0
-224 -95 0
-224 170 0
-224 140 0
-224 -19 0
224 52 95 -170 -140 19 0
-225 -30 0
-225 -143 0
-225 118 0
-225 -173 0
-225 -48 0
225 30 143 -118 173 48 0
221 222 223 224 225 0
-226 98 0
-226 141 0
-226 -113 0
-226 143 0
-226 40 0
226 -98 -141 113 -143 -40 0
-227 -170 0
-227 22 0
-227 -35 0
-227 53 0
-227 86 0
227 170 -22 35 -53 -86 0
-228 -79 0
-228 -15 0
-228 22 0
-228 58 0
-228 -158 0
228 79 15 -22 -58 158 0
-229 102 0
-229 -175 0
-229 -147 0
-229 -11 0
-229 -176 0
229 -102 175 147 11 176 0
-230 177 0
-230 161 0
-230 73 0
-230 -84 0
-230 187 0
230 -177 -161 -73 84 -187 0
226 227 228 229 230 0
-231 -6 0
-231 -104 0
-231 13 0
-231 -118 0
-231 101 0
231 6 104 -13 118 -101 0
-232 23 0
-232 -132 0
-232 1 0
-232 5 0
-232 163 0
232 -23 132 -1 -5 -163 0
-233 50 0
-233 94 0
-233 133 0
-233 55 0
-233 105 0
233 -50 -94 -133 -55 -105 0
-234 -132 0
-234 -110 0
-234 130 0
-234 8 0
-234 152 0
234 132 110 -130 -8 -152 0
-235 -148 0
-235 172 0
-235 3 0
-235 111 0
-235 80 0
235 148 -172 -3 -111 -80 0
231 232 233 234 235 0
-236 -65 0
-236 -165 0
-236 58 0
-236 -136 0
-236 133 0
236 65 165 -58 136 -133 0
-237 162 0
-237 115 0
-237 -17 0
-237 180 0
-237 -124 0
237 -162 -115 17 -180 124 0
-238 165 0
-238 45 0
-238 -29 0
-238 -10 0
-238 46 0
238 -165 -45 29 10 -46 0
-239 -86 0
-239 179 0
-239 -165 0
-239 -33 0
-239 92 0
239 86 -179 165 33 -92 0
-240 -185 0
-240 -7 0
-240 -66 0
-240 152 0
-240 138 0
240 185 7 66 -152 -138 0
236 237 238 239 240 0
-241 -108 0
-241 -73 0
-241 -103 0
-241 5 0
-241 158 0
241 108 73 103 -5 -158 0
-242 125 0
-242 -116 0
-242 84 0
-242 39 0
-242 -188 0
242 -125 116 -84 -39 188 0
-243 -189 0
-243 153 0
-243 107 0
-243 178 0
-243 56 0
243 189 -153 -107 -178 -56 0
-244 141 0
-244 98 0
-244 189 0
-244 65 0
-244 -16 0
244 -141 -98 -189 -65 16 0
-245 61 0
-245 -120 0
-245 -163 0
-245 166 0
-245 189 0
245 -61 120 163 -166 -189 0
241 242 243 244 245 0
-246 137 0
-246 21 0
-246 32 0
-246 -36 0
-246 163 0
246 -137 -21 -32 36 -163 0
-247 -2 0
-247 -12 0
-247 116 0
-247 4 0
-247 -165 0
247 2 12 -116 -4 165 0
-248 -90 0
-248 7 0
-248 77 0
-248 -38 0
-248 121 0
248 90 -7 -77 38 -121 0
-249 -77 0
-249 -130 0
-249 -3 0
-249 31 0
-249 13 0
249 77 130 3 -31 -13 0
-250 68 0
-250 16 0
-250 -96 0
-250 103 0
-250 -122 0
250 -68 -16 96 -103 122 0
246 247 248 249 250 0
-251 -117 0
-251 -28 0
-251 -31 0
-251 -23 0
-251 127 0
251 117 28 31 23 -127 0
-252 -142 0
-252 -135 0
-252 -19 0
-252 -61 0
-252 11 0
252 142 135 19 61 -11 0
-253 10 0
-253 131 0
-253 61 0
-253 -142 0
-253 -24 0
253 -10 -131 -61 142 24 0
-254 164 0
-254 -156 0
-254 -126 0
-254 66 0
-254 -189 0
254 -164 156 126 -66 189 0
-255 22 0
-255 23 0
-255 -38 0
-255 87 0
-255 123 0
255 -22 -23 38 -87 -123 0
251 252 253 254 255 0
-256 -133 0
-256 6 0
-256 21 0
-256 23 0
-256 22 0
256 133 -6 -21 -23 -22 0
-257 116 0
-257 7 0
-257 134 0
-257 79 0
-257 50 0
257 -116 -7 -134 -79 -50 0
-258 77 0
-258 -26 0
-258 -120 0
-258 -100 0
-258 -181 0
258 -77 26 120 100 181 0
-259 31 0
-259 -1 0
-259 73 0
-259 -152 0
-259 18 0
259 -31 1 -73 152 -18 0
-260 108 0
-260 -42 0
-260 -62 0
-260 -179 0
-260 155 0
260 -108 42 62 179 -155 0
256 257 258 259 260 0
-261 157 0
-261 -103 0
-261 31 0
-261 -147 0
-261 128 0
261 -157 103 -31 147 -128 0
-262 -138 0
-262 -179 0
-262 -71 0
-262 184 0
-262 -38 0
262 138 179 71 -184 38 0
-263 56 0
-263 -108 0
-263 180 0
-263 141 0
-263 -170 0
263 -56 108 -180 -141 170 0
-264 76 0
-264 50 0
-264 83 0
-264 -181 0
-264 -99 0
264 -76 -50 -83 181 99 0
-265 25 0
-265 -73 0
-265 -71 0
-265 -179 0
-265 -128 0
265 -25 73 71 179 128 0
261 262 263 264 265 0
-266 184 0
-266 171 0
-266 168 0
-266 62 0
-266 133 0
266 -184 -171 -168 -62 -133 0
-267 160 0
-267 -137 0
-267 179 0
-267 -183 0
-267 18 0
267 -160 137 -179 183 -18 0
-268 180 0
-268 -6 0
-268 -148 0
-268 -138 0
-268 87 0
268 -180 6 148 138 -87 0
-269 31 0
-269 169 0
-269 75 0
-269 167 0
-269 42 0
269 -31 -169 -75 -167 -42 0
-270 -92 0
-270 25 0
-270 -129 0
-270 -177 0
-270 -157 0
270 92 -25 129 177 157 0
266 267 268 269 270 0
-271 -57 0
-271 -82 0
-271 27 0
-271 -133 0
-271 -66 0
271 57 82 -27 133 66 0
-272 -112 0
-272 110 0
-272 60 0
-272 31 0
-272 -2 0
272 112 -110 -60 -31 2 0
-273 46 0
-273 -19 0
-273 -125 0
-273 -139 0
-273 -15 0
273 -46 19 125 139 15 0
-274 -136 0
-274 111 0
-274 -69 0
-274 -188 0
-274 -120 0
274 136 -111 69 188 120 0
-275 65 0
-275 81 0
-275 -101 0
-275 -122 0
-275 -71 0
275 -65 -81 101 122 71 0
271 272 273 274 275 0
-276 120 0
-276 -128 0
-276 172 0
-276 40 0
-276 -16 0
276 -120 128 -172 -40 16 0
-277 143 0
-277 61 0
-277 19 0
-277 130 0
-277 -115 0
277 -143 -61 -19 -130 115 0
-278 -2 0
-278 111 0
-278 64 0
-278 -46 0
-278 41 0
278 2 -111 -64 46 -41 0
-279 -110 0
-279 -28 0
-279 75 0
-279 39 0
-279 -188 0
279 110 28 -75 -39 188 0
-280 87 0
-280 163 0
-280 85 0
-280 72 0
-280 -127 0
280 -87 -163 -85 -72 127 0
276 277 278 279 280 0
-281 -53 0
-281 -188 0
-281 168 0
-281 11 0
-281 165 0
281 53 188 -168 -11 -165 0
-282 -25 0
-282 -39 0
-282 115 0
-282 56 0
-282 53 0
282 25 39 -115 -56 -53 0
-283 -41 0
-283 -150 0
-283 -11 0
-283 145 0
-283 -117 0
283 41 150 11 -145 117 0
-284 124 0
-284 6 0
-284 -76 0
-284 172 0
-284 -1 0
284 -124 -6 76 -172 1 0
-285 92 0
-285 7 0
-285 -187 0
-285 84 0
-285 -108 0
285 -92 -7 187 -84 108 0
281 282 283 284 285 0
-286 -69 0
-286 -10 0
-286 26 0
-286 -74 0
-286 -116 0
286 69 10 -26 74 116 0
-287 -110 0
-287 -86 0
-287 -15 0
-287 22 0
-287 -109 0
287 110 86 15 -22 109 0
-288 -168 0
-288 -120 0
-288 23 0
-288 -125 0
-288 -101 0
288 168 120 -23 125 101 0
-289 -137 0
-289 95 0
-289 -91 0
-289 -1 0
-289 8 0
289 137 -95 91 1 -8 0
-290 -23 0
-290 -19 0
-290 93 0
-290 8 0
-290 -60 0
290 23 19 -93 -8 60 0
286 287 288 289 290 0
-291 -178 0
-291 -158 0
-291 -21 0
-291 30 0
-291 -135 0
291 178 158 21 -30 135 0
-292 75 0
-292 30 0
-292 -24 0
-292 50 0
-292 -177 0
292 -75 -30 24 -50 177 0
-293 -188 0
-293 -62 0
-293 -50 0
-293 -135 0
-293 -55 0
293 188 62 50 135 55 0
-294 -182 0
-294 -176 0
-294 -47 0
-294 -71 0
-294 -169 0
294 182 176 47 71 169 0
-295 -25 0
-295 -153 0
-295 -17 0
-295 -158 0
-295 85 0
295 25 153 17 158 -85 0
291 292 293 294 295 0
-296 -26 0
-296 50 0
-296 7 0
-296 -98 0
-296 75 0
296 26 -50 -7 98 -75 0
-297 4 0
-297 81 0
-297 71 0
-297 146 0
-297 73 0
297 -4 -81 -71 -146 -73 0
-298 158 0
-298 67 0
-298 26 0
-298 21 0
-298 -135 0
298 -158 -67 -26 -21 135 0
-299 -163 0
-299 -145 0
-299 133 0
-299 181 0
-299 -135 0
299 163 145 -133 -181 135 0
-300 57 0
-300 -33 0
-300 80 0
-300 185 0
-300 145 0
300 -57 33 -80 -185 -145 0
296 297 298 299 300 0
-301 -155 0
-301 -89 0
-301 92 0
-301 56 0
-301 58 0
301 155 89 -92 -56 -58 0
-302 152 0
-302 -118 0
-302 124 0
-302 50 0
-302 95 0
302 -152 118 -124 -50 -95 0
-303 -30 0
-303 166 0
-303 45 0
-303 182 0
-303 70 0
303 30 -166 -45 -182 -70 0
-304 -36 0
-304 68 0
-304 56 0
-304 178 0
-304 -148 0
304 36 -68 -56 -178 148 0
-305 99 0
-305 -134 0
-305 19 0
-305 20 0
-305 35 0
305 -99 134 -19 -20 -35 0
301 302 303 304 305 0
-306 172 0
-306 -109 0
-306 -62 0
-306 92 0
-306 23 0
306 -172 109 62 -92 -23 0
-307 127 0
-307 -40 0
-307 -131 0
-307 -101 0
-307 15 0
307 -127 40 131 101 -15 0
-308 152 0
-308 126 0
-308 -160 0
-308 -55 0
-308 94 0
308 -152 -126 160 55 -94 0
-309 116 0
-309 123 0
-309 -163 0
-309 -14 0
-309 -8 0
309 -116 -123 163 14 8 0
-310 -97 0
-310 99 0
-310 19 0
-310 -129 0
-310 -37 0
310 97 -99 -19 129 37 0
306 307 308 309 310 0
-311 21 0
-311 -8 0
-311 -25 0
-311 -32 0
-311 -132 0
311 -21 8 25 32 132 0
-312 -146 0
-312 154 0
-312 107 0
-312 -183 0
-312 103 0
312 146 -154 -107 183 -103 0
-313 118 0
-313 76 0
-313 141 0
-313 149 0
-313 -124 0
313 -118 -76 -141 -149 124 0
-314 -34 0
-314 62 0
-314 162 0
-314 128 0
-314 23 0
314 34 -62 -162 -128 -23 0
-315 119 0
-315 -11 0
-315 -163 0
-315 -67 0
-315 -14 0
315 -119 11 163 67 14 0
311 312 313 314 315 0
-316 -185 0
-316 -91 0
-316 -1 0
-316 -176 0
-316 -169 0
316 185 91 1 176 169 0
-317 -78 0
-317 52 0
-317 -62 0
-317 129 0
-317 33 0
317 78 -52 62 -129 -33 0
-318 20 0
-318 -76 0
-318 39 0
-318 24 0
-318 78 0
318 -20 76 -39 -24 -78 0
-319 -118 0
-319 4 0
-319 -19 0
-319 -141 0
-319 61 0
319 118 -4 19 141 -61 0
-320 -104 0
-320 -21 0
-320 118 0
-320 183 0
-320 -97 0
320 104 21 -118 -183 97 0
316 317 318 319 320 0
-321 -109 0
-321 119 0
-321 -18 0
-321 -52 0
-321 13 0
321 109 -119 18 52 -13 0
-322 -172 0
-322 -119 0
-322 156 0
-322 -84 0
-322 131 0
322 172 119 -156 84 -131 0
-323 30 0
-323 -79 0
-323 -84 0
-323 68 0
-323 -114 0
323 -30 79 84 -68 114 0
-324 -138 0
-324 126 0
-324 -87 0
-324 -115 0
-324 20 0
324 138 -126 87 115 -20 0
-325 -118 0
-325 -7 0
-325 -50 0
-325 114 0
-325 83 0
325 118 7 50 -114 -83 0
321 322 323 324 325 0
-326 131 0
-326 121 0
-326 44 0
-326 53 0
-326 -1 0
326 -131 -121 -44 -53 1 0
-327 26 0
-327 106 0
-327 155 0
-327 13 0
-327 121 0
327 -26 -106 -155 -13 -121 0
-328 -27 0
-328 -188 0
-328 -23 0
-328 85 0
-328 32 0
328 27 188 23 -85 -32 0
-329 7 0
-329 -21 0
-329 10 0
-329 67 0
-329 166 0
329 -7 21 -10 -67 -166 0
-330 -36 0
-330 144 0
-330 -97 0
-330 -139 0
-330 140 0
330 36 -144 97 139 -140 0
326 327 328 329 330 0
-331 -95 0
-331 179 0
-331 -61 0
-331 -129 0
-331 -72 0
331 95 -179 61 129 72 0
-332 140 0
-332 -7 0
-332 39 0
-332 -56 0
-332 -138 0
332 -140 7 -39 56 138 0
-333 -189 0
-333 -134 0
-333 36 0
-333 -17 0
-333 41 0
333 189 134 -36 17 -41 0
-334 40 0
-334 -168 0
-334 101 0
-334 -13 0
-334 127 0
334 -40 168 -101 13 -127 0
-335 81 0
-335 82 0
-335 103 0
-335 -181 0
-335 17 0
335 -81 -82 -103 181 -17 0
331 332 333 334 335 0
-336 156 0
-336 -56 0
-336 -116 0
-336 15 0
-336 -176 0
336 -156 56 116 -15 176 0
-337 -83 0
-337 -2 0
-337 -93 0
-337 -157 0
-337 -53 0
337 83 2 93 157 53 0
-338 -96 0
-338 92 0
-338 -9 0
-338 100 0
-338 32 0
338 96 -92 9 -100 -32 0
-339 -125 0
-339 151 0
-339 -110 0
-339 -164 0
-339 -56 0
339 125 -151 110 164 56 0
-340 -104 0
-340 -107 0
-340 -9 0
-340 124 0
-340 169 0
340 104 107 9 -124 -169 0
336 337 338 339 340 0
-341 -35 0
-341 -47 0
-341 -27 0
-341 43 0
-341 -91 0
341 35 47 27 -43 91 0
-342 44 0
-342 -178 0
-342 11 0
-342 35 0
-342 -9 0
342 -44 178 -11 -35 9 0
-343 -149 0
-343 -22 0
-343 -177 0
-343 6 0
-343 135 0
343 149 22 177 -6 -135 0
-344 -89 0
-344 83 0
-344 75 0
-344 -142 0
-344 -127 0
344 89 -83 -75 142 127 0
-345 -20 0
-345 172 0
-345 189 0
-345 48 0
-345 163 0
345 20 -172 -189 -48 -163 0
341 342 343 344 345 0
-346 -143 0
-346 -171 0
-346 -160 0
-346 -41 0
-346 8 0
346 143 171 160 41 -8 0
-347 -29 0
-347 11 0
-347 84 0
-347 9 0
-347 145 0
347 29 -11 -84 -9 -145 0
-348 39 0
-348 53 0
-348 -167 0
-348 163 0
-348 90 0
348 -39 -53 167 -163 -90 0
-349 -127 0
-349 -166 0
-349 51 0
-349 134 0
-349 91 0
349 127 166 -51 -134 -91 0
-350 -3 0
-350 -60 0
-350 -187 0
-350 162 0
-350 -19 0
350 3 60 187 -162 19 0
346 347 348 349 350 0
-351 -125 0
-351 -137 0
-351 147 0
-351 68 0
-351 85 0
351 125 137 -147 -68 -85 0
-352 184 0
-352 68 0
-352 134 0
-352 -8 0
-352 -101 0
352 -184 -68 -134 8 101 0
-353 47 0
-353 68 0
-353 172 0
-353 88 0
-353 -149 0
353 -47 -68 -172 -88 149 0
-354 150 0
-354 -10 0
-354 20 0
-354 81 0
-354 158 0
354 -150 10 -20 -81 -158 0
-355 27 0
-355 -26 0
-355 -184 0
-355 -65 0
-355 -52 0
355 -27 26 184 65 52 0
351 352 353 354 355 0
-356 -160 0
-356 106 0
-356 -172 0
-356 1 0
-356 110 0
356 160 -106 172 -1 -110 0
-357 -22 0
-357 -55 0
-357 38 0
-357 108 0
-357 134 0
357 22 55 -38 -108 -134 0
-358 96 0
-358 56 0
-358 -60 0
-358 130 0
-358 -80 0
358 -96 -56 60 -130 80 0
-359 -49 0
-359 -71 0
-359 -172 0
-359 -110 0
-359 -10 0
359 49 71 172 110 10 0
-360 -163 0
-360 91 0
-360 -135 0
-360 -190 0
-360 -167 0
360 163 -91 135 190 167 0
356 357 358 359 360 0
-361 38 0
-361 -88 0
-361 158 0
-361 84 0
-361 107 0
361 -38 88 -158 -84 -107 0
-362 33 0
-362 -172 0
-362 -165 0
-362 -8 0
-362 6 0
362 -33 172 165 8 -6 0
-363 50 0
-363 73 0
-363 119 0
-363 102 0
-363 146 0
363 -50 -73 -119 -102 -146 0
-364 20 0
-364 97 0
-364 -170 0
-364 -65 0
-364 187 0
364 -20 -97 170 65 -187 0
-365 -128 0
-365 151 0
-365 8 0
-365 -159 0
-365 181 0
365 128 -151 -8 159 -181 0
361 362 363 364 365 0
-366 120 0
-366 153 0
-366 36 0
-366 15 0
-366 -87 0
366 -120 -153 -36 -15 87 0
-367 -20 0
-367 82 0
-367 -189 0
-367 -61 0
-367 -112 0
367 20 -82 189 61 112 0
-368 181 0
-368 143 0
-368 -90 0
-368 169 0
-368 -113 0
368 -181 -143 90 -169 113 0
-369 98 0
-369 88 0
-369 -57 0
-369 109 0
-369 -12 0
369 -98 -88 57 -109 12 0
-370 -8 0
-370 42 0
-370 -130 0
-370 -143 0
-370 128 0
370 8 -42 130 143 -128 0
366 367 368 369 370 0
-371 11 0
-371 -143 0
-371 69 0
-371 179 0
-371 -68 0
371 -11 143 -69 -179 68 0
-372 -26 0
-372 174 0
-372 -115 0
-372 -24 0
-372 100 0
372 26 -174 115 24 -100 0
-373 -94 0
-373 -113 0
-373 -75 0
-373 147 0
-373 61 0
373 94 113 75 -147 -61 0
-374 189 0
-374 66 0
-374 -133 0
-374 -99 0
-374 -151 0
374 -189 -66 133 99 151 0
-375 -61 0
-375 -74 0
-375 153 0
-375 -68 0
-375 -144 0
375 61 74 -153 68 144 0
371 372 373 374 375 0
-376 6 0
-376 43 0
-376 -74 0
-376 64 0
-376 -44 0
376 -6 -43 74 -64 44 0
-377 -189 0
-377 -93 0
-377 -1 0
-377 183 0
-377 -53 0
377 189 93 1 -183 53 0
-378 132 0
-378 16 0
-378 8 0
-378 146 0
-378 33 0
378 -132 -16 -8 -146 -33 0
-379 65 0
-379 40 0
-379 68 0
-379 169 0
-379 -48 0
379 -65 -40 -68 -169 48 0
-380 -45 0
-380 -152 0
-380 -63 0
-380 -82 0
-380 -69 0
380 45 152 63 82 69 0
376 377 378 379 380 0
-381 -180 0
-381 110 0
-381 131 0
-381 190 0
-381 4 0
381 180 -110 -131 -190 -4 0
-382 -167 0
-382 172 0
-382 -52 0
-382 186 0
-382 -30 0
382 167 -172 52 -186 30 0
-383 -104 0
-383 -94 0
-383 180 0
-383 132 0
-383 -24 0
383 104 94 -180 -132 24 0
-384 -40 0
-384 102 0
-384 110 0
-384 -52 0
-384 -166 0
384 40 -102 -110 52 166 0
-385 121 0
-385 -149 0
-385 129 0
-385 -116 0
-385 -15 0
385 -121 149 -129 116 15 0
381 382 383 384 385 0
-386 -115 0
-386 -172 0
-386 51 0
-386 -144 0
-386 -66 0
386 115 172 -51 144 66 0
-387 -135 0
-387 -154 0
-387 -163 0
-387 -117 0
-387 118 0
387 135 154 163 117 -118 0
-388 117 0
-388 14 0
-388 81 0
-388 -184 0
-388 -144 0
388 -117 -14 -81 184 144 0
-389 -101 0
-389 152 0
-389 143 0
-389 -18 0
-389 -131 0
389 101 -152 -143 18 131 0
-390 17 0
-390 9 0
-390 41 0
-390 -181 0
-390 174 0
390 -17 -9 -41 181 -174 0
386 387 388 389 390 0
-391 -187 0
-391 -31 0
-391 -22 0
-391 160 0
-391 -141 0
391 187 31 22 -160 141 0
-392 118 0
-392 100 0
-392 -49 0
-392 151 0
-392 56 0
392 -118 -100 49 -151 -56 0
-393 -39 0
-393 135 0
-393 30 0
-393 84 0
-393 -102 0
393 39 -135 -30 -84 102 0
-394 170 0
-394 169 0
-394 70 0
-394 -44 0
-394 -93 0
394 -170 -169 -70 44 93 0
-395 36 0
-395 91 0
-395 -68 0
-395 -62 0
-395 112 0
395 -36 -91 68 62 -112 0
391 392 393 394 395 0
-396 118 0
-396 48 0
-396 186 0
-396 116 0
-396 20 0
396 -118 -48 -186 -116 -20 0
-397 15 0
-397 106 0
-397 23 0
-397 144 0
-397 -183 0
397 -15 -106 -23 -144 183 0
-398 115 0
-398 85 0
-398 190 0
-398 175 0
-398 -166 0
398 -115 -85 -190 -175 166 0
-399 43 0
-399 173 0
-399 79 0
-399 136 0
-399 93 0
399 -43 -173 -79 -136 -93 0
-400 -134 0
-400 161 0
-400 -14 0
-400 176 0
-400 -101 0
400 134 -161 14 -176 101 0
396 397 398 399 400 0
-401 -135 0
-401 -69 0
-401 -131 0
-401 -48 0
-401 114 0
401 135 69 131 48 -114 0
-402 91 0
-402 93 0
-402 -149 0
-402 101 0
-402 79 0
402 -91 -93 149 -101 -79 0
-403 -129 0
-403 -55 0
-403 144 0
-403 -158 0
-403 183 0
403 129 55 -144 158 -183 0
-404 -129 0
-404 -151 0
-404 56 0
-404 9 0
-404 -21 0
404 129 151 -56 -9 21 0
-405 -20 0
-405 -4 0
-405 128 0
-405 123 0
-405 65 0
405 20 4 -128 -123 -65 0
401 402 403 404 405 0
-406 89 0
-406 -157 0
-406 -55 0
-406 155 0
-406 -51 0
406 -89 157 55 -155 51 0
-407 -187 0
-407 29 0
-407 81 0
-407 -117 0
-407 49 0
407 187 -29 -81 117 -49 0
-408 34 0
-408 -155 0
-408 134 0
-408 -123 0
-408 56 0
408 -34 155 -134 123 -56 0
-409 56 0
-409 179 0
-409 42 0
-409 -156 0
-409 185 0
409 -56 -179 -42 156 -185 0
-410 -158 0
-410 118 0
-410 117 0
-410 75 0
-410 129 0
410 158 -118 -117 -75 -129 0
406 407 408 409 410 0
-411 161 0
-411 38 0
-411 133 0
-411 190 0
-411 30 0
411 -161 -38 -133 -190 -30 0
-412 8 0
-412 143 0
-412 -28 0
-412 176 0
-412 72 0
412 -8 -143 28 -176 -72 0
-413 -37 0
-413 175 0
-413 -42 0
-413 45 0
-413 -25 0
413 37 -175 42 -45 25 0
-414 29 0
-414 40 0
-414 90 0
-414 81 0
-414 103 0
414 -29 -40 -90 -81 -103 0
-415 -68 0
-415 18 0
-415 146 0
-415 139 0
-415 -137 0
415 68 -18 -146 -139 137 0
411 412 413 414 415 0
-416 22 0
-416 38 0
-416 84 0
-416 -113 0
-416 -78 0
416 -22 -38 -84 113 78 0
-417 37 0
-417 13 0
-417 -169 0
-417 -95 0
-417 59 0
417 -37 -13 169 95 -59 0
-418 157 0
-418 -11 0
-418 -166 0
-418 34 0
-418 -182 0
418 -157 11 166 -34 182 0
-419 36 0
-419 59 0
-419 136 0
-419 52 0
-419 172 0
419 -36 -59 -136 -52 -172 0
-420 47 0
-420 -157 0
-420 -73 0
-420 -105 0
-420 129 0
420 -47 157 73 105 -129 0
416 417 418 419 420 0
-421 92 0
-421 136 0
-421 -178 0
-421 107 0
-421 126 0
421 -92 -136 178 -107 -126 0
-422 77 0
-422 -73 0
-422 -43 0
-422 -6 0
-422 49 0
422 -77 73 43 6 -49 0
-423 102 0
-423 118 0
-423 -65 0
-423 171 0
-423 143 0
423 -102 -118 65 -171 -143 0
-424 -150 0
-424 -148 0
-424 -109 0
-424 -153 0
-424 52 0
424 150 148 109 153 -52 0
-425 170 0
-425 -86 0
-425 -124 0
-425 35 0
-425 -13 0
425 -170 86 124 -35 13 0
421 422 423 424 425 0
-426 -40 0
-426 132 0
-426 138 0
-426 -14 0
-426 -15 0
426 40 -132 -138 14 15 0
-427 -99 0
-427 -41 0
-427 -108 0
-427 -40 0
-427 -113 0
427 99 41 108 40 113 0
-428 -45 0
-428 -181 0
-428 15 0
-428 -144 0
-428 -84 0
428 45 181 -15 144 84 0
-429 -157 0
-429 56 0
-429 -36 0
-429 -112 0
-429 87 0
429 157 -56 36 112 -87 0
-430 -64 0
-430 152 0
-430 -44 0
-430 177 0
-430 25 0
430 64 -152 44 -177 -25 0
426 427 428 429 430 0
